0 60 60
1 61 61
2 52 65
3 55 65
4 46 67
5 66 66
6 56 62
7 54 62
8 33 61
9 46 60
10 39 60
11 52 59
12 55 56
13 35 53
14 40 52
15 47 50
16 28 51
17 46 50
18 42 49
19 19 46
20 35 45
21 36 43
22 40 41
23 22 38
24 33 37
25 30 38
26 28 37
27 28 35
28 31 34
29 32 34
30 28 32
31 18 31
32 21 31
33 23 29
34 25 26
35 21 24
36 19 23
37 19 22
38 17 21
39 19 20
40 10 19
41 18 18
42 18 18
43 15 17
44 6 15
45 12 13
46 13 16
47 11 15
48 13 16
49 13 15
50 10 15
51 9 14
52 6 13
53 12 13
54 10 12
55 8 11
56 5 11
57 6 10
58 5 8
59 8 8
60 5 9
61 2 7
62 1 4
63 1 1
64 1 1

